c 
c G(k,n,p) graph
c graph gen seed     : 9038
c number of vertices : 60
c max number of edges: 900
c number of classes  : 2
c edge density       : 0.100000
c edge probability   : 0.200000
c data structure     : sparse
c
c           Graph Stats
c number of vertices  : 60
c nonisolated vertices: 60
c number of edges     : 188
c edge density        : 0.106215
c max degree          : 11
c avg degree          : 6.27
c min degree          : 3
p col 60 188
e 1 55
e 1 50
e 1 42
e 1 33
e 1 31
e 1 23
e 2 51
e 2 49
e 2 44
e 2 41
e 2 38
e 2 36
e 2 22
e 2 10
e 3 60
e 3 59
e 3 58
e 3 51
e 3 34
e 3 4
e 4 54
e 4 53
e 4 52
e 4 50
e 4 29
e 4 14
e 4 7
e 4 6
e 5 58
e 5 51
e 5 24
e 5 22
e 5 15
e 6 60
e 6 58
e 6 48
e 6 43
e 6 36
e 6 28
e 6 22
e 6 18
e 7 60
e 7 58
e 7 49
e 7 46
e 7 43
e 7 38
e 7 22
e 7 11
e 8 60
e 8 51
e 8 45
e 8 18
e 8 10
e 9 49
e 9 48
e 9 46
e 9 45
e 9 41
e 9 36
e 9 34
e 9 22
e 9 18
e 10 39
e 10 27
e 10 26
e 10 21
e 11 29
e 11 23
e 12 42
e 12 31
e 12 23
e 13 51
e 13 34
e 13 16
e 13 15
e 14 58
e 14 56
e 14 36
e 14 22
e 14 20
e 15 55
e 15 37
e 15 27
e 15 26
e 15 25
e 15 23
e 16 53
e 16 50
e 16 42
e 16 39
e 16 31
e 16 26
e 17 55
e 17 39
e 17 27
e 18 47
e 18 40
e 18 35
e 18 31
e 18 29
e 19 54
e 19 47
e 19 40
e 19 30
e 20 40
e 20 33
e 20 27
e 21 58
e 21 51
e 21 46
e 21 43
e 21 28
e 21 22
e 22 57
e 22 50
e 22 32
e 22 23
e 23 60
e 23 51
e 23 46
e 23 38
e 24 54
e 24 53
e 24 26
e 25 59
e 25 56
e 25 46
e 25 45
e 25 44
e 26 38
e 26 36
e 26 34
e 27 59
e 27 56
e 27 38
e 28 55
e 28 53
e 28 39
e 28 37
e 28 33
e 29 49
e 29 45
e 29 38
e 29 36
e 30 44
e 30 43
e 30 41
e 30 36
e 31 38
e 32 51
e 32 48
e 32 43
e 32 36
e 33 49
e 33 44
e 33 38
e 34 52
e 34 40
e 34 37
e 35 49
e 35 48
e 35 46
e 35 45
e 36 53
e 36 42
e 40 58
e 41 54
e 41 42
e 42 60
e 42 49
e 42 46
e 43 53
e 43 52
e 45 57
e 45 47
e 46 55
e 47 58
e 47 56
e 47 48
e 49 55
e 49 53
e 51 55
e 51 53
e 54 59
e 54 58
e 54 56
e 57 60
